12222.0 1392122.0 
12162.0 1398158.0 
12178.0 1393606.0 
12235.0 1384734.0 
12174.0 1395606.0 
12226.0 1389830.0 
12261.0 1384413.0 
12266.0 1383994.0 
12161.0 1398738.0 
12466.0 1380169.0 
12468.0 1380125.0 
12267.0 1381297.0 
